750
50 50
1 35 895
2 35 772
3 35 563
4 35 124
5 35 429
6 35 262
7 35 906
8 35 266
9 35 783
10 35 869
11 35 362
12 35 853
13 35 218
14 35 543
15 35 244
16 35 59
17 35 128
18 35 447
19 35 838
20 35 186
21 35 896
22 35 86
23 35 814
24 35 887
25 35 214
26 35 551
27 35 846
28 35 265
29 35 0
30 34 674
31 34 114
32 34 524
33 34 304
34 34 612
35 34 222
36 34 147
37 34 918
38 34 457
39 34 554
40 34 364
41 34 186
42 34 705
43 34 84
44 34 497
45 34 977
46 34 91
47 34 817
48 34 613
49 34 123
50 34 104
51 34 990
52 34 35
53 34 43
54 34 136
55 34 886
56 34 160
57 34 258
58 33 257
59 33 107
60 33 33
61 33 162
62 33 372
63 33 849
64 33 323
65 33 757
66 33 903
67 33 991
68 33 588
69 33 540
70 33 449
71 33 896
72 33 834
73 33 982
74 33 956
75 33 749
76 33 436
77 33 589
78 33 747
79 33 704
80 33 22
81 33 786
82 33 946
83 33 696
84 33 969
85 33 173
86 32 804
87 32 632
88 32 451
89 32 118
90 32 579
91 32 429
92 32 813
93 32 962
94 32 68
95 32 378
96 32 437
97 32 695
98 32 143
99 32 937
100 32 938
101 32 236
102 32 999
103 32 110
104 32 116
105 32 192
106 32 727
107 32 830
108 32 64
109 31 238
110 31 545
111 31 729
112 31 179
113 31 126
114 31 586
115 31 90
116 31 480
117 31 546
118 31 449
119 31 114
120 31 586
121 31 307
122 31 306
123 31 584
124 31 86
125 31 856
126 31 214
127 31 238
128 31 424
129 31 505
130 31 531
131 31 762
132 31 321
133 31 722
134 31 126
135 30 902
136 30 918
137 30 487
138 30 772
139 30 550
140 30 768
141 30 503
142 30 458
143 30 400
144 30 312
145 30 937
146 30 253
147 30 111
148 30 821
149 30 817
150 30 270
151 30 186
152 30 460
153 30 852
154 30 51
155 30 700
156 30 959
157 30 309
158 30 312
159 30 338
160 30 276
161 30 528
162 30 801
163 30 729
164 30 734
165 30 424
166 30 154
167 29 366
168 29 43
169 29 434
170 29 202
171 29 960
172 29 882
173 29 348
174 29 791
175 29 877
176 29 293
177 29 674
178 29 707
179 29 870
180 29 987
181 29 128
182 29 234
183 29 703
184 29 211
185 29 236
186 29 622
187 29 159
188 29 171
189 29 239
190 29 651
191 29 154
192 29 243
193 29 310
194 29 458
195 29 784
196 28 179
197 28 644
198 28 849
199 28 205
200 28 199
201 28 348
202 28 929
203 28 124
204 28 240
205 28 74
206 28 77
207 28 527
208 28 692
209 28 905
210 28 656
211 28 730
212 28 417
213 28 989
214 28 522
215 28 940
216 28 98
217 28 144
218 28 386
219 28 673
220 28 843
221 28 85
222 28 774
223 28 106
224 27 317
225 27 636
226 27 159
227 27 538
228 27 139
229 27 719
230 27 172
231 27 206
232 27 672
233 27 921
234 27 402
235 27 784
236 27 418
237 27 647
238 27 856
239 27 674
240 27 939
241 27 479
242 27 785
243 27 107
244 27 523
245 27 520
246 27 474
247 27 130
248 27 146
249 26 699
250 26 132
251 26 198
252 26 944
253 26 684
254 26 808
255 26 725
256 26 377
257 26 143
258 26 540
259 26 318
260 26 146
261 26 657
262 26 71
263 26 602
264 26 590
265 26 156
266 26 967
267 26 737
268 26 150
269 25 895
270 25 423
271 25 740
272 25 569
273 25 166
274 25 264
275 25 850
276 25 699
277 25 77
278 25 411
279 25 892
280 25 414
281 25 569
282 25 131
283 25 172
284 25 79
285 25 177
286 25 800
287 25 96
288 25 442
289 25 987
290 25 234
291 25 134
292 25 136
293 25 349
294 25 189
295 25 240
296 25 993
297 25 363
298 25 417
299 24 758
300 24 995
301 24 40
302 24 865
303 24 653
304 24 701
305 24 982
306 24 218
307 24 424
308 24 193
309 24 120
310 24 518
311 24 25
312 24 311
313 24 723
314 24 633
315 24 119
316 24 639
317 24 414
318 24 138
319 24 51
320 24 26
321 24 472
322 24 377
323 24 320
324 24 172
325 24 887
326 24 98
327 24 107
328 24 528
329 24 796
330 24 192
331 24 308
332 24 977
333 24 980
334 24 942
335 24 859
336 23 956
337 23 464
338 23 526
339 23 362
340 23 210
341 23 550
342 23 774
343 23 28
344 23 507
345 23 321
346 23 903
347 23 866
348 23 123
349 23 517
350 23 467
351 23 831
352 23 260
353 23 744
354 23 547
355 23 445
356 23 976
357 23 365
358 23 794
359 23 673
360 23 416
361 23 277
362 23 726
363 23 990
364 23 161
365 23 705
366 23 308
367 23 912
368 23 499
369 23 850
370 23 477
371 23 777
372 22 845
373 22 702
374 22 177
375 22 3
376 22 513
377 22 494
378 22 59
379 22 526
380 22 720
381 22 279
382 22 139
383 22 519
384 22 273
385 22 277
386 22 888
387 22 642
388 22 745
389 22 972
390 22 864
391 22 52
392 22 285
393 22 194
394 22 622
395 22 32
396 22 666
397 22 713
398 22 845
399 22 259
400 22 266
401 22 899
402 21 587
403 21 28
404 21 716
405 21 987
406 21 303
407 21 926
408 21 277
409 21 247
410 21 640
411 21 89
412 21 734
413 21 935
414 21 798
415 21 566
416 21 243
417 21 81
418 21 514
419 21 344
420 21 539
421 21 306
422 21 843
423 20 731
424 20 901
425 20 840
426 20 733
427 20 795
428 20 133
429 20 317
430 20 825
431 20 864
432 20 735
433 20 136
434 20 675
435 20 214
436 20 917
437 20 480
438 20 92
439 20 468
440 20 46
441 20 76
442 20 149
443 20 555
444 20 922
445 20 52
446 20 89
447 20 997
448 20 293
449 20 302
450 20 714
451 20 559
452 20 973
453 20 734
454 20 441
455 20 503
456 20 394
457 20 206
458 20 778
459 19 986
460 19 522
461 19 762
462 19 588
463 19 216
464 19 572
465 19 989
466 19 880
467 19 274
468 19 354
469 19 991
470 19 159
471 19 587
472 19 867
473 19 354
474 19 897
475 19 748
476 19 147
477 19 653
478 19 77
479 19 807
480 19 204
481 19 911
482 19 542
483 19 215
484 19 282
485 19 367
486 18 977
487 18 257
488 18 402
489 18 287
490 18 599
491 18 3
492 18 240
493 18 377
494 18 697
495 18 433
496 18 877
497 18 974
498 18 141
499 18 454
500 18 642
501 18 636
502 18 27
503 18 312
504 18 312
505 18 369
506 18 209
507 18 149
508 18 449
509 18 187
510 18 311
511 18 54
512 18 26
513 18 620
514 18 279
515 18 73
516 18 55
517 18 409
518 18 791
519 18 912
520 18 103
521 18 402
522 18 327
523 18 670
524 18 645
525 18 937
526 17 922
527 17 13
528 17 578
529 17 387
530 17 474
531 17 745
532 17 86
533 17 958
534 17 601
535 17 189
536 17 727
537 17 479
538 17 221
539 17 155
540 17 400
541 17 123
542 17 0
543 17 719
544 17 325
545 17 47
546 17 276
547 17 736
548 17 786
549 17 615
550 17 569
551 17 731
552 17 60
553 17 363
554 17 802
555 17 275
556 17 34
557 17 956
558 16 388
559 16 831
560 16 698
561 16 592
562 16 564
563 16 381
564 16 488
565 16 568
566 16 24
567 16 988
568 16 999
569 16 10
570 16 281
571 16 485
572 16 892
573 16 793
574 16 71
575 16 856
576 16 792
577 16 120
578 16 165
579 16 473
580 16 938
581 16 62
582 16 405
583 16 441
584 16 437
585 15 928
586 15 328
587 15 46
588 15 292
589 15 310
590 15 692
591 15 51
592 15 565
593 15 558
594 15 813
595 15 782
596 15 288
597 15 456
598 15 695
599 15 871
600 15 295
601 15 103
602 15 331
603 15 988
604 15 9
605 15 744
606 15 318
607 15 742
608 14 619
609 14 49
610 14 128
611 14 162
612 14 368
613 14 855
614 14 443
615 14 305
616 14 209
617 14 164
618 14 705
619 14 258
620 14 14
621 14 891
622 14 171
623 14 185
624 14 997
625 14 35
626 14 734
627 14 52
628 14 136
629 14 748
630 14 450
631 14 170
632 14 658
633 14 982
634 14 789
635 14 232
636 13 424
637 13 345
638 13 335
639 13 953
640 13 6
641 13 177
642 13 365
643 13 151
644 13 847
645 13 159
646 13 385
647 13 755
648 13 541
649 13 406
650 13 648
651 13 143
652 13 312
653 13 929
654 13 983
655 13 188
656 13 555
657 13 251
658 13 475
659 13 132
660 13 620
661 13 144
662 13 962
663 13 131
664 13 973
665 13 696
666 13 641
667 13 795
668 13 665
669 13 701
670 13 528
671 13 390
672 13 14
673 13 282
674 13 529
675 13 56
676 12 85
677 12 808
678 12 17
679 12 145
680 12 888
681 12 712
682 12 129
683 12 74
684 12 269
685 12 334
686 12 675
687 12 726
688 12 933
689 11 765
690 11 121
691 11 821
692 11 576
693 11 916
694 11 551
695 11 526
696 11 517
697 11 124
698 11 194
699 11 209
700 11 163
701 11 549
702 11 986
703 11 87
704 11 434
705 11 619
706 11 77
707 11 165
708 11 577
709 11 537
710 11 208
711 11 821
712 11 498
713 11 276
714 11 514
715 11 408
716 11 547
717 11 949
718 11 311
719 11 514
720 11 634
721 11 689
722 11 947
723 10 282
724 10 27
725 10 863
726 10 983
727 10 325
728 10 775
729 10 853
730 10 869
731 10 472
732 10 698
733 10 831
734 10 348
735 10 966
736 10 782
737 10 519
738 10 190
739 10 399
740 10 32
741 10 408
742 10 344
743 10 715
744 10 878
745 10 24
746 10 687
747 10 28
748 10 961
749 10 80
750 10 420
